100 4950
1 2 5
1 3 5
1 4 2
1 5 3
1 6 3
1 7 1
1 8 5
1 9 3
1 10 5
1 11 5
1 12 1
1 13 2
1 14 4
1 15 4
1 16 3
1 17 3
1 18 2
1 19 2
1 20 4
1 21 3
1 22 4
1 23 1
1 24 3
1 25 2
1 26 1
1 27 5
1 28 3
1 29 5
1 30 5
1 31 4
1 32 4
1 33 1
1 34 3
1 35 1
1 36 4
1 37 3
1 38 1
1 39 2
1 40 5
1 41 5
1 42 3
1 43 2
1 44 3
1 45 2
1 46 2
1 47 2
1 48 1
1 49 4
1 50 2
1 51 1
1 52 1
1 53 2
1 54 2
1 55 3
1 56 3
1 57 3
1 58 5
1 59 2
1 60 5
1 61 4
1 62 4
1 63 2
1 64 4
1 65 5
1 66 5
1 67 2
1 68 1
1 69 2
1 70 1
1 71 4
1 72 5
1 73 4
1 74 2
1 75 5
1 76 3
1 77 3
1 78 3
1 79 5
1 80 3
1 81 1
1 82 5
1 83 4
1 84 5
1 85 1
1 86 3
1 87 5
1 88 3
1 89 4
1 90 5
1 91 5
1 92 2
1 93 1
1 94 2
1 95 5
1 96 4
1 97 1
1 98 2
1 99 5
1 100 4
2 3 3
2 4 4
2 5 1
2 6 3
2 7 2
2 8 5
2 9 4
2 10 3
2 11 4
2 12 2
2 13 3
2 14 5
2 15 5
2 16 5
2 17 3
2 18 1
2 19 2
2 20 2
2 21 2
2 22 3
2 23 5
2 24 3
2 25 2
2 26 1
2 27 2
2 28 5
2 29 4
2 30 3
2 31 4
2 32 5
2 33 1
2 34 1
2 35 4
2 36 3
2 37 2
2 38 2
2 39 2
2 40 3
2 41 4
2 42 2
2 43 2
2 44 2
2 45 2
2 46 4
2 47 4
2 48 2
2 49 4
2 50 1
2 51 3
2 52 2
2 53 2
2 54 3
2 55 1
2 56 2
2 57 3
2 58 4
2 59 1
2 60 3
2 61 5
2 62 2
2 63 3
2 64 4
2 65 3
2 66 1
2 67 1
2 68 1
2 69 4
2 70 2
2 71 5
2 72 3
2 73 5
2 74 3
2 75 5
2 76 5
2 77 1
2 78 2
2 79 2
2 80 2
2 81 3
2 82 1
2 83 4
2 84 5
2 85 4
2 86 3
2 87 2
2 88 2
2 89 5
2 90 1
2 91 3
2 92 1
2 93 4
2 94 5
2 95 3
2 96 1
2 97 5
2 98 4
2 99 3
2 100 5
3 4 1
3 5 2
3 6 1
3 7 1
3 8 1
3 9 3
3 10 4
3 11 2
3 12 3
3 13 4
3 14 2
3 15 3
3 16 2
3 17 2
3 18 4
3 19 3
3 20 2
3 21 2
3 22 4
3 23 1
3 24 1
3 25 1
3 26 1
3 27 2
3 28 5
3 29 3
3 30 2
3 31 5
3 32 5
3 33 5
3 34 5
3 35 3
3 36 3
3 37 5
3 38 3
3 39 3
3 40 3
3 41 3
3 42 2
3 43 5
3 44 5
3 45 2
3 46 3
3 47 2
3 48 1
3 49 5
3 50 3
3 51 1
3 52 5
3 53 1
3 54 2
3 55 5
3 56 1
3 57 1
3 58 3
3 59 5
3 60 1
3 61 1
3 62 2
3 63 1
3 64 4
3 65 4
3 66 3
3 67 3
3 68 4
3 69 1
3 70 5
3 71 2
3 72 1
3 73 3
3 74 2
3 75 3
3 76 1
3 77 5
3 78 2
3 79 4
3 80 1
3 81 5
3 82 5
3 83 3
3 84 4
3 85 3
3 86 3
3 87 4
3 88 3
3 89 5
3 90 2
3 91 1
3 92 2
3 93 4
3 94 5
3 95 5
3 96 1
3 97 2
3 98 5
3 99 4
3 100 1
4 5 5
4 6 1
4 7 2
4 8 4
4 9 5
4 10 3
4 11 3
4 12 3
4 13 2
4 14 1
4 15 4
4 16 4
4 17 2
4 18 1
4 19 2
4 20 5
4 21 5
4 22 2
4 23 5
4 24 2
4 25 2
4 26 1
4 27 3
4 28 3
4 29 5
4 30 4
4 31 1
4 32 1
4 33 2
4 34 3
4 35 3
4 36 5
4 37 5
4 38 2
4 39 5
4 40 4
4 41 2
4 42 2
4 43 1
4 44 3
4 45 5
4 46 4
4 47 1
4 48 3
4 49 4
4 50 2
4 51 1
4 52 3
4 53 2
4 54 4
4 55 3
4 56 3
4 57 1
4 58 5
4 59 4
4 60 3
4 61 5
4 62 3
4 63 1
4 64 3
4 65 2
4 66 2
4 67 3
4 68 3
4 69 2
4 70 3
4 71 4
4 72 3
4 73 2
4 74 3
4 75 1
4 76 5
4 77 2
4 78 5
4 79 2
4 80 5
4 81 5
4 82 5
4 83 3
4 84 4
4 85 1
4 86 3
4 87 1
4 88 4
4 89 2
4 90 5
4 91 1
4 92 3
4 93 3
4 94 2
4 95 2
4 96 5
4 97 5
4 98 5
4 99 2
4 100 5
5 6 4
5 7 2
5 8 4
5 9 3
5 10 4
5 11 2
5 12 2
5 13 5
5 14 3
5 15 4
5 16 4
5 17 5
5 18 1
5 19 5
5 20 5
5 21 2
5 22 3
5 23 3
5 24 3
5 25 2
5 26 1
5 27 2
5 28 1
5 29 5
5 30 4
5 31 4
5 32 4
5 33 4
5 34 4
5 35 5
5 36 1
5 37 1
5 38 2
5 39 4
5 40 2
5 41 4
5 42 1
5 43 5
5 44 1
5 45 3
5 46 2
5 47 4
5 48 5
5 49 1
5 50 3
5 51 1
5 52 2
5 53 5
5 54 5
5 55 3
5 56 5
5 57 2
5 58 2
5 59 3
5 60 4
5 61 5
5 62 5
5 63 1
5 64 2
5 65 3
5 66 3
5 67 4
5 68 2
5 69 3
5 70 3
5 71 1
5 72 4
5 73 4
5 74 4
5 75 2
5 76 2
5 77 2
5 78 3
5 79 5
5 80 3
5 81 1
5 82 5
5 83 3
5 84 4
5 85 3
5 86 5
5 87 4
5 88 3
5 89 1
5 90 3
5 91 1
5 92 3
5 93 2
5 94 4
5 95 3
5 96 3
5 97 4
5 98 1
5 99 5
5 100 3
6 7 2
6 8 5
6 9 4
6 10 5
6 11 4
6 12 4
6 13 5
6 14 4
6 15 2
6 16 3
6 17 4
6 18 1
6 19 5
6 20 5
6 21 4
6 22 1
6 23 3
6 24 2
6 25 4
6 26 2
6 27 1
6 28 3
6 29 3
6 30 1
6 31 2
6 32 1
6 33 1
6 34 1
6 35 4
6 36 1
6 37 1
6 38 3
6 39 4
6 40 5
6 41 3
6 42 3
6 43 5
6 44 1
6 45 3
6 46 1
6 47 3
6 48 2
6 49 1
6 50 5
6 51 1
6 52 2
6 53 2
6 54 1
6 55 1
6 56 2
6 57 3
6 58 3
6 59 1
6 60 3
6 61 4
6 62 2
6 63 1
6 64 3
6 65 1
6 66 5
6 67 2
6 68 1
6 69 1
6 70 4
6 71 2
6 72 4
6 73 2
6 74 2
6 75 3
6 76 3
6 77 2
6 78 4
6 79 2
6 80 2
6 81 1
6 82 1
6 83 1
6 84 5
6 85 2
6 86 5
6 87 1
6 88 3
6 89 3
6 90 5
6 91 1
6 92 1
6 93 5
6 94 2
6 95 3
6 96 1
6 97 4
6 98 5
6 99 1
6 100 2
7 8 4
7 9 1
7 10 5
7 11 1
7 12 5
7 13 5
7 14 1
7 15 1
7 16 2
7 17 4
7 18 5
7 19 2
7 20 5
7 21 1
7 22 3
7 23 1
7 24 5
7 25 2
7 26 1
7 27 3
7 28 3
7 29 1
7 30 1
7 31 3
7 32 3
7 33 5
7 34 1
7 35 3
7 36 1
7 37 3
7 38 2
7 39 4
7 40 5
7 41 5
7 42 5
7 43 1
7 44 3
7 45 5
7 46 1
7 47 4
7 48 4
7 49 3
7 50 1
7 51 3
7 52 3
7 53 3
7 54 3
7 55 1
7 56 3
7 57 2
7 58 1
7 59 5
7 60 3
7 61 3
7 62 1
7 63 2
7 64 3
7 65 1
7 66 2
7 67 2
7 68 4
7 69 3
7 70 3
7 71 1
7 72 4
7 73 4
7 74 1
7 75 1
7 76 1
7 77 4
7 78 1
7 79 5
7 80 4
7 81 3
7 82 2
7 83 2
7 84 5
7 85 3
7 86 3
7 87 4
7 88 3
7 89 4
7 90 4
7 91 2
7 92 1
7 93 1
7 94 4
7 95 2
7 96 4
7 97 2
7 98 4
7 99 3
7 100 1
8 9 3
8 10 5
8 11 1
8 12 4
8 13 3
8 14 1
8 15 2
8 16 2
8 17 2
8 18 5
8 19 2
8 20 1
8 21 2
8 22 2
8 23 3
8 24 2
8 25 5
8 26 1
8 27 2
8 28 2
8 29 4
8 30 3
8 31 3
8 32 4
8 33 4
8 34 4
8 35 2
8 36 4
8 37 5
8 38 3
8 39 4
8 40 2
8 41 2
8 42 2
8 43 3
8 44 2
8 45 1
8 46 2
8 47 5
8 48 2
8 49 2
8 50 2
8 51 1
8 52 3
8 53 5
8 54 5
8 55 1
8 56 3
8 57 3
8 58 2
8 59 3
8 60 3
8 61 5
8 62 4
8 63 3
8 64 4
8 65 1
8 66 1
8 67 3
8 68 2
8 69 5
8 70 3
8 71 3
8 72 5
8 73 3
8 74 2
8 75 4
8 76 1
8 77 1
8 78 5
8 79 3
8 80 1
8 81 2
8 82 5
8 83 4
8 84 3
8 85 2
8 86 1
8 87 1
8 88 4
8 89 3
8 90 1
8 91 4
8 92 5
8 93 1
8 94 4
8 95 5
8 96 5
8 97 4
8 98 3
8 99 2
8 100 2
9 10 3
9 11 2
9 12 3
9 13 3
9 14 1
9 15 3
9 16 3
9 17 3
9 18 2
9 19 2
9 20 5
9 21 4
9 22 5
9 23 2
9 24 4
9 25 1
9 26 4
9 27 2
9 28 2
9 29 2
9 30 4
9 31 1
9 32 3
9 33 3
9 34 4
9 35 3
9 36 3
9 37 3
9 38 5
9 39 2
9 40 4
9 41 1
9 42 2
9 43 3
9 44 1
9 45 1
9 46 1
9 47 2
9 48 3
9 49 1
9 50 2
9 51 4
9 52 2
9 53 1
9 54 2
9 55 4
9 56 4
9 57 3
9 58 4
9 59 1
9 60 2
9 61 5
9 62 4
9 63 4
9 64 2
9 65 1
9 66 2
9 67 4
9 68 5
9 69 4
9 70 4
9 71 1
9 72 4
9 73 5
9 74 5
9 75 4
9 76 1
9 77 1
9 78 5
9 79 2
9 80 1
9 81 2
9 82 4
9 83 3
9 84 4
9 85 3
9 86 2
9 87 1
9 88 1
9 89 4
9 90 1
9 91 1
9 92 3
9 93 1
9 94 1
9 95 3
9 96 3
9 97 1
9 98 1
9 99 5
9 100 1
10 11 1
10 12 3
10 13 1
10 14 5
10 15 4
10 16 3
10 17 2
10 18 1
10 19 4
10 20 1
10 21 4
10 22 4
10 23 2
10 24 5
10 25 3
10 26 2
10 27 5
10 28 2
10 29 5
10 30 3
10 31 3
10 32 2
10 33 5
10 34 3
10 35 4
10 36 3
10 37 1
10 38 5
10 39 2
10 40 2
10 41 1
10 42 2
10 43 1
10 44 2
10 45 3
10 46 3
10 47 1
10 48 2
10 49 1
10 50 4
10 51 3
10 52 3
10 53 1
10 54 4
10 55 1
10 56 5
10 57 4
10 58 5
10 59 1
10 60 5
10 61 2
10 62 1
10 63 1
10 64 5
10 65 2
10 66 3
10 67 2
10 68 3
10 69 3
10 70 4
10 71 1
10 72 4
10 73 5
10 74 1
10 75 3
10 76 1
10 77 2
10 78 1
10 79 2
10 80 5
10 81 4
10 82 4
10 83 3
10 84 3
10 85 3
10 86 5
10 87 3
10 88 2
10 89 2
10 90 5
10 91 4
10 92 5
10 93 1
10 94 2
10 95 2
10 96 4
10 97 2
10 98 1
10 99 1
10 100 5
11 12 2
11 13 3
11 14 2
11 15 2
11 16 2
11 17 2
11 18 3
11 19 2
11 20 2
11 21 3
11 22 2
11 23 1
11 24 5
11 25 5
11 26 3
11 27 5
11 28 2
11 29 1
11 30 5
11 31 4
11 32 2
11 33 5
11 34 2
11 35 2
11 36 1
11 37 2
11 38 4
11 39 5
11 40 3
11 41 4
11 42 4
11 43 2
11 44 3
11 45 4
11 46 4
11 47 3
11 48 5
11 49 3
11 50 1
11 51 3
11 52 4
11 53 4
11 54 3
11 55 2
11 56 5
11 57 3
11 58 3
11 59 3
11 60 4
11 61 3
11 62 1
11 63 4
11 64 2
11 65 4
11 66 3
11 67 4
11 68 5
11 69 5
11 70 4
11 71 5
11 72 4
11 73 4
11 74 3
11 75 4
11 76 2
11 77 3
11 78 1
11 79 2
11 80 3
11 81 2
11 82 4
11 83 3
11 84 4
11 85 2
11 86 2
11 87 3
11 88 4
11 89 3
11 90 2
11 91 5
11 92 1
11 93 4
11 94 1
11 95 2
11 96 4
11 97 4
11 98 1
11 99 1
11 100 3
12 13 5
12 14 5
12 15 5
12 16 1
12 17 3
12 18 5
12 19 2
12 20 4
12 21 3
12 22 5
12 23 4
12 24 2
12 25 5
12 26 3
12 27 2
12 28 2
12 29 5
12 30 2
12 31 1
12 32 5
12 33 5
12 34 4
12 35 1
12 36 4
12 37 1
12 38 4
12 39 5
12 40 5
12 41 2
12 42 2
12 43 2
12 44 3
12 45 2
12 46 1
12 47 2
12 48 2
12 49 2
12 50 1
12 51 3
12 52 3
12 53 2
12 54 5
12 55 2
12 56 5
12 57 1
12 58 1
12 59 1
12 60 5
12 61 3
12 62 5
12 63 4
12 64 5
12 65 5
12 66 3
12 67 5
12 68 1
12 69 2
12 70 4
12 71 3
12 72 2
12 73 5
12 74 4
12 75 4
12 76 5
12 77 1
12 78 4
12 79 2
12 80 1
12 81 3
12 82 4
12 83 5
12 84 5
12 85 2
12 86 1
12 87 3
12 88 1
12 89 1
12 90 4
12 91 1
12 92 4
12 93 2
12 94 5
12 95 5
12 96 3
12 97 5
12 98 4
12 99 3
12 100 4
13 14 1
13 15 1
13 16 1
13 17 2
13 18 5
13 19 4
13 20 1
13 21 5
13 22 1
13 23 5
13 24 4
13 25 3
13 26 5
13 27 1
13 28 2
13 29 4
13 30 3
13 31 2
13 32 5
13 33 4
13 34 5
13 35 3
13 36 5
13 37 5
13 38 3
13 39 5
13 40 2
13 41 3
13 42 1
13 43 1
13 44 5
13 45 5
13 46 2
13 47 4
13 48 5
13 49 4
13 50 3
13 51 4
13 52 2
13 53 4
13 54 5
13 55 1
13 56 2
13 57 3
13 58 1
13 59 1
13 60 2
13 61 2
13 62 2
13 63 1
13 64 4
13 65 4
13 66 4
13 67 4
13 68 1
13 69 2
13 70 3
13 71 3
13 72 4
13 73 5
13 74 5
13 75 4
13 76 4
13 77 4
13 78 4
13 79 5
13 80 4
13 81 3
13 82 5
13 83 1
13 84 5
13 85 1
13 86 3
13 87 2
13 88 1
13 89 3
13 90 4
13 91 4
13 92 2
13 93 2
13 94 3
13 95 4
13 96 4
13 97 4
13 98 1
13 99 4
13 100 5
14 15 5
14 16 3
14 17 2
14 18 5
14 19 2
14 20 1
14 21 1
14 22 2
14 23 5
14 24 4
14 25 4
14 26 4
14 27 1
14 28 5
14 29 1
14 30 5
14 31 5
14 32 1
14 33 5
14 34 2
14 35 4
14 36 1
14 37 2
14 38 5
14 39 5
14 40 2
14 41 5
14 42 4
14 43 1
14 44 1
14 45 5
14 46 3
14 47 4
14 48 1
14 49 2
14 50 4
14 51 1
14 52 3
14 53 5
14 54 3
14 55 5
14 56 2
14 57 4
14 58 4
14 59 4
14 60 5
14 61 5
14 62 3
14 63 1
14 64 3
14 65 3
14 66 1
14 67 3
14 68 3
14 69 4
14 70 4
14 71 1
14 72 5
14 73 4
14 74 1
14 75 3
14 76 1
14 77 5
14 78 3
14 79 1
14 80 1
14 81 1
14 82 5
14 83 4
14 84 4
14 85 3
14 86 4
14 87 4
14 88 2
14 89 1
14 90 2
14 91 3
14 92 3
14 93 2
14 94 5
14 95 4
14 96 3
14 97 2
14 98 3
14 99 3
14 100 2
15 16 5
15 17 3
15 18 3
15 19 4
15 20 5
15 21 4
15 22 4
15 23 4
15 24 3
15 25 4
15 26 2
15 27 5
15 28 1
15 29 4
15 30 4
15 31 5
15 32 5
15 33 4
15 34 4
15 35 1
15 36 4
15 37 4
15 38 2
15 39 4
15 40 3
15 41 2
15 42 4
15 43 3
15 44 1
15 45 3
15 46 2
15 47 1
15 48 1
15 49 5
15 50 2
15 51 4
15 52 3
15 53 4
15 54 4
15 55 1
15 56 1
15 57 3
15 58 3
15 59 2
15 60 2
15 61 5
15 62 2
15 63 4
15 64 2
15 65 5
15 66 2
15 67 4
15 68 2
15 69 4
15 70 5
15 71 2
15 72 2
15 73 3
15 74 3
15 75 5
15 76 1
15 77 4
15 78 1
15 79 1
15 80 5
15 81 5
15 82 5
15 83 5
15 84 5
15 85 4
15 86 5
15 87 5
15 88 5
15 89 5
15 90 5
15 91 2
15 92 1
15 93 3
15 94 5
15 95 5
15 96 2
15 97 3
15 98 5
15 99 5
15 100 1
16 17 4
16 18 2
16 19 5
16 20 2
16 21 2
16 22 4
16 23 1
16 24 2
16 25 3
16 26 3
16 27 1
16 28 2
16 29 5
16 30 1
16 31 2
16 32 3
16 33 5
16 34 1
16 35 2
16 36 1
16 37 5
16 38 5
16 39 1
16 40 4
16 41 5
16 42 5
16 43 4
16 44 4
16 45 2
16 46 3
16 47 2
16 48 2
16 49 3
16 50 2
16 51 5
16 52 1
16 53 5
16 54 2
16 55 2
16 56 2
16 57 3
16 58 1
16 59 4
16 60 2
16 61 1
16 62 1
16 63 5
16 64 1
16 65 5
16 66 5
16 67 2
16 68 5
16 69 4
16 70 2
16 71 4
16 72 4
16 73 5
16 74 3
16 75 1
16 76 4
16 77 5
16 78 3
16 79 5
16 80 5
16 81 5
16 82 3
16 83 5
16 84 5
16 85 1
16 86 1
16 87 2
16 88 2
16 89 1
16 90 2
16 91 3
16 92 3
16 93 4
16 94 5
16 95 3
16 96 5
16 97 1
16 98 4
16 99 5
16 100 1
17 18 2
17 19 2
17 20 3
17 21 1
17 22 5
17 23 5
17 24 2
17 25 1
17 26 2
17 27 4
17 28 5
17 29 5
17 30 1
17 31 1
17 32 3
17 33 2
17 34 3
17 35 5
17 36 1
17 37 3
17 38 2
17 39 5
17 40 3
17 41 4
17 42 1
17 43 4
17 44 4
17 45 1
17 46 5
17 47 2
17 48 1
17 49 3
17 50 5
17 51 3
17 52 5
17 53 1
17 54 2
17 55 4
17 56 5
17 57 3
17 58 3
17 59 3
17 60 2
17 61 4
17 62 3
17 63 4
17 64 3
17 65 1
17 66 1
17 67 5
17 68 3
17 69 1
17 70 5
17 71 4
17 72 2
17 73 1
17 74 5
17 75 3
17 76 3
17 77 3
17 78 5
17 79 4
17 80 4
17 81 1
17 82 3
17 83 5
17 84 4
17 85 5
17 86 2
17 87 1
17 88 5
17 89 3
17 90 3
17 91 5
17 92 2
17 93 3
17 94 5
17 95 5
17 96 1
17 97 4
17 98 3
17 99 1
17 100 5
18 19 2
18 20 5
18 21 3
18 22 5
18 23 2
18 24 5
18 25 5
18 26 3
18 27 5
18 28 3
18 29 2
18 30 2
18 31 1
18 32 3
18 33 1
18 34 5
18 35 5
18 36 1
18 37 3
18 38 3
18 39 2
18 40 4
18 41 2
18 42 3
18 43 4
18 44 5
18 45 3
18 46 2
18 47 1
18 48 4
18 49 2
18 50 5
18 51 1
18 52 5
18 53 4
18 54 2
18 55 5
18 56 3
18 57 5
18 58 4
18 59 2
18 60 4
18 61 1
18 62 1
18 63 3
18 64 4
18 65 2
18 66 3
18 67 4
18 68 4
18 69 5
18 70 5
18 71 4
18 72 1
18 73 5
18 74 5
18 75 4
18 76 4
18 77 1
18 78 1
18 79 2
18 80 1
18 81 2
18 82 5
18 83 1
18 84 2
18 85 2
18 86 1
18 87 4
18 88 3
18 89 2
18 90 4
18 91 1
18 92 1
18 93 5
18 94 2
18 95 5
18 96 3
18 97 3
18 98 5
18 99 2
18 100 2
19 20 1
19 21 4
19 22 5
19 23 2
19 24 4
19 25 3
19 26 3
19 27 5
19 28 3
19 29 5
19 30 5
19 31 1
19 32 2
19 33 3
19 34 2
19 35 2
19 36 2
19 37 1
19 38 3
19 39 2
19 40 4
19 41 3
19 42 1
19 43 1
19 44 3
19 45 4
19 46 3
19 47 5
19 48 1
19 49 1
19 50 3
19 51 3
19 52 5
19 53 3
19 54 1
19 55 5
19 56 5
19 57 2
19 58 3
19 59 3
19 60 5
19 61 4
19 62 1
19 63 4
19 64 5
19 65 5
19 66 4
19 67 4
19 68 2
19 69 1
19 70 3
19 71 5
19 72 5
19 73 3
19 74 5
19 75 1
19 76 2
19 77 2
19 78 4
19 79 1
19 80 3
19 81 3
19 82 3
19 83 4
19 84 5
19 85 3
19 86 4
19 87 1
19 88 2
19 89 2
19 90 1
19 91 4
19 92 3
19 93 2
19 94 2
19 95 1
19 96 3
19 97 5
19 98 3
19 99 2
19 100 5
20 21 4
20 22 4
20 23 3
20 24 5
20 25 3
20 26 2
20 27 5
20 28 1
20 29 1
20 30 3
20 31 1
20 32 1
20 33 3
20 34 2
20 35 1
20 36 3
20 37 1
20 38 1
20 39 5
20 40 1
20 41 2
20 42 4
20 43 4
20 44 5
20 45 5
20 46 3
20 47 4
20 48 4
20 49 2
20 50 2
20 51 5
20 52 3
20 53 5
20 54 3
20 55 3
20 56 4
20 57 4
20 58 3
20 59 3
20 60 1
20 61 1
20 62 3
20 63 3
20 64 5
20 65 1
20 66 2
20 67 2
20 68 4
20 69 2
20 70 4
20 71 3
20 72 4
20 73 5
20 74 4
20 75 3
20 76 3
20 77 2
20 78 2
20 79 2
20 80 4
20 81 4
20 82 3
20 83 1
20 84 3
20 85 1
20 86 1
20 87 1
20 88 4
20 89 2
20 90 1
20 91 4
20 92 3
20 93 3
20 94 2
20 95 5
20 96 5
20 97 1
20 98 5
20 99 3
20 100 3
21 22 1
21 23 2
21 24 5
21 25 2
21 26 1
21 27 2
21 28 3
21 29 1
21 30 5
21 31 4
21 32 4
21 33 3
21 34 3
21 35 5
21 36 3
21 37 5
21 38 3
21 39 3
21 40 5
21 41 4
21 42 4
21 43 2
21 44 4
21 45 1
21 46 2
21 47 3
21 48 5
21 49 1
21 50 3
21 51 2
21 52 2
21 53 2
21 54 5
21 55 3
21 56 5
21 57 5
21 58 3
21 59 5
21 60 2
21 61 2
21 62 4
21 63 3
21 64 5
21 65 3
21 66 1
21 67 2
21 68 2
21 69 2
21 70 5
21 71 2
21 72 4
21 73 5
21 74 3
21 75 1
21 76 5
21 77 2
21 78 3
21 79 2
21 80 4
21 81 4
21 82 2
21 83 3
21 84 4
21 85 5
21 86 1
21 87 3
21 88 5
21 89 1
21 90 1
21 91 4
21 92 2
21 93 1
21 94 4
21 95 1
21 96 5
21 97 5
21 98 1
21 99 5
21 100 4
22 23 4
22 24 4
22 25 2
22 26 3
22 27 1
22 28 1
22 29 3
22 30 4
22 31 1
22 32 1
22 33 2
22 34 3
22 35 4
22 36 1
22 37 4
22 38 1
22 39 1
22 40 4
22 41 3
22 42 2
22 43 4
22 44 2
22 45 5
22 46 4
22 47 2
22 48 2
22 49 4
22 50 2
22 51 3
22 52 5
22 53 4
22 54 3
22 55 3
22 56 4
22 57 3
22 58 5
22 59 4
22 60 2
22 61 4
22 62 3
22 63 1
22 64 4
22 65 2
22 66 5
22 67 5
22 68 4
22 69 4
22 70 2
22 71 4
22 72 1
22 73 3
22 74 3
22 75 3
22 76 1
22 77 4
22 78 3
22 79 3
22 80 2
22 81 1
22 82 5
22 83 3
22 84 2
22 85 1
22 86 4
22 87 5
22 88 5
22 89 5
22 90 2
22 91 2
22 92 2
22 93 1
22 94 4
22 95 4
22 96 1
22 97 4
22 98 2
22 99 3
22 100 4
23 24 5
23 25 5
23 26 5
23 27 2
23 28 3
23 29 5
23 30 2
23 31 1
23 32 4
23 33 4
23 34 5
23 35 1
23 36 4
23 37 1
23 38 4
23 39 1
23 40 4
23 41 3
23 42 1
23 43 5
23 44 5
23 45 5
23 46 3
23 47 2
23 48 1
23 49 4
23 50 2
23 51 3
23 52 5
23 53 2
23 54 2
23 55 4
23 56 3
23 57 1
23 58 2
23 59 2
23 60 5
23 61 5
23 62 1
23 63 5
23 64 2
23 65 5
23 66 3
23 67 4
23 68 1
23 69 3
23 70 5
23 71 4
23 72 2
23 73 5
23 74 3
23 75 1
23 76 5
23 77 5
23 78 5
23 79 3
23 80 5
23 81 5
23 82 1
23 83 5
23 84 5
23 85 4
23 86 5
23 87 2
23 88 4
23 89 4
23 90 2
23 91 2
23 92 3
23 93 2
23 94 3
23 95 3
23 96 4
23 97 2
23 98 5
23 99 1
23 100 1
24 25 3
24 26 5
24 27 2
24 28 1
24 29 4
24 30 3
24 31 3
24 32 5
24 33 1
24 34 5
24 35 2
24 36 2
24 37 3
24 38 1
24 39 4
24 40 3
24 41 5
24 42 2
24 43 2
24 44 5
24 45 4
24 46 2
24 47 2
24 48 3
24 49 1
24 50 3
24 51 4
24 52 4
24 53 2
24 54 5
24 55 4
24 56 5
24 57 3
24 58 3
24 59 1
24 60 3
24 61 5
24 62 3
24 63 4
24 64 3
24 65 2
24 66 1
24 67 5
24 68 1
24 69 3
24 70 2
24 71 5
24 72 5
24 73 1
24 74 1
24 75 2
24 76 4
24 77 2
24 78 1
24 79 2
24 80 4
24 81 2
24 82 3
24 83 1
24 84 1
24 85 4
24 86 3
24 87 1
24 88 4
24 89 1
24 90 1
24 91 3
24 92 2
24 93 1
24 94 3
24 95 5
24 96 5
24 97 4
24 98 3
24 99 5
24 100 4
25 26 1
25 27 1
25 28 5
25 29 4
25 30 1
25 31 1
25 32 3
25 33 2
25 34 2
25 35 5
25 36 1
25 37 5
25 38 4
25 39 5
25 40 5
25 41 5
25 42 5
25 43 3
25 44 2
25 45 3
25 46 4
25 47 5
25 48 5
25 49 3
25 50 1
25 51 3
25 52 3
25 53 2
25 54 4
25 55 4
25 56 3
25 57 3
25 58 1
25 59 3
25 60 1
25 61 4
25 62 5
25 63 4
25 64 5
25 65 5
25 66 5
25 67 4
25 68 5
25 69 3
25 70 4
25 71 1
25 72 5
25 73 3
25 74 3
25 75 4
25 76 5
25 77 5
25 78 3
25 79 1
25 80 4
25 81 3
25 82 5
25 83 4
25 84 1
25 85 5
25 86 2
25 87 4
25 88 4
25 89 2
25 90 5
25 91 1
25 92 1
25 93 2
25 94 5
25 95 5
25 96 4
25 97 5
25 98 2
25 99 5
25 100 5
26 27 3
26 28 2
26 29 3
26 30 5
26 31 4
26 32 5
26 33 3
26 34 2
26 35 1
26 36 2
26 37 3
26 38 3
26 39 5
26 40 4
26 41 2
26 42 2
26 43 4
26 44 5
26 45 3
26 46 5
26 47 4
26 48 4
26 49 1
26 50 2
26 51 2
26 52 5
26 53 4
26 54 2
26 55 2
26 56 4
26 57 3
26 58 3
26 59 4
26 60 1
26 61 4
26 62 2
26 63 5
26 64 4
26 65 4
26 66 5
26 67 1
26 68 4
26 69 1
26 70 4
26 71 3
26 72 3
26 73 2
26 74 3
26 75 2
26 76 2
26 77 2
26 78 4
26 79 4
26 80 5
26 81 5
26 82 3
26 83 2
26 84 1
26 85 4
26 86 1
26 87 3
26 88 1
26 89 4
26 90 2
26 91 5
26 92 3
26 93 5
26 94 1
26 95 1
26 96 1
26 97 5
26 98 2
26 99 5
26 100 4
27 28 3
27 29 2
27 30 1
27 31 2
27 32 4
27 33 1
27 34 1
27 35 3
27 36 4
27 37 3
27 38 1
27 39 1
27 40 3
27 41 1
27 42 4
27 43 5
27 44 5
27 45 5
27 46 4
27 47 1
27 48 3
27 49 3
27 50 3
27 51 1
27 52 1
27 53 5
27 54 2
27 55 4
27 56 3
27 57 2
27 58 4
27 59 5
27 60 1
27 61 3
27 62 4
27 63 4
27 64 1
27 65 1
27 66 3
27 67 5
27 68 2
27 69 3
27 70 2
27 71 1
27 72 1
27 73 3
27 74 4
27 75 2
27 76 5
27 77 1
27 78 3
27 79 3
27 80 5
27 81 3
27 82 3
27 83 5
27 84 4
27 85 1
27 86 1
27 87 3
27 88 3
27 89 4
27 90 1
27 91 5
27 92 5
27 93 3
27 94 4
27 95 2
27 96 2
27 97 3
27 98 4
27 99 1
27 100 2
28 29 3
28 30 1
28 31 3
28 32 4
28 33 1
28 34 4
28 35 4
28 36 1
28 37 5
28 38 3
28 39 2
28 40 1
28 41 4
28 42 5
28 43 1
28 44 2
28 45 1
28 46 3
28 47 4
28 48 4
28 49 1
28 50 2
28 51 4
28 52 3
28 53 2
28 54 3
28 55 2
28 56 5
28 57 2
28 58 3
28 59 5
28 60 5
28 61 1
28 62 2
28 63 5
28 64 4
28 65 4
28 66 3
28 67 1
28 68 3
28 69 1
28 70 5
28 71 5
28 72 4
28 73 1
28 74 5
28 75 2
28 76 3
28 77 1
28 78 3
28 79 5
28 80 4
28 81 4
28 82 2
28 83 5
28 84 5
28 85 2
28 86 3
28 87 5
28 88 3
28 89 5
28 90 3
28 91 5
28 92 5
28 93 1
28 94 5
28 95 3
28 96 5
28 97 2
28 98 1
28 99 4
28 100 5
29 30 3
29 31 3
29 32 5
29 33 1
29 34 3
29 35 2
29 36 2
29 37 4
29 38 5
29 39 2
29 40 4
29 41 1
29 42 1
29 43 2
29 44 1
29 45 5
29 46 4
29 47 5
29 48 2
29 49 5
29 50 4
29 51 5
29 52 5
29 53 3
29 54 5
29 55 5
29 56 2
29 57 3
29 58 1
29 59 3
29 60 4
29 61 3
29 62 5
29 63 3
29 64 1
29 65 3
29 66 1
29 67 5
29 68 2
29 69 3
29 70 1
29 71 3
29 72 2
29 73 5
29 74 5
29 75 5
29 76 5
29 77 4
29 78 3
29 79 1
29 80 3
29 81 5
29 82 3
29 83 1
29 84 1
29 85 4
29 86 4
29 87 2
29 88 5
29 89 4
29 90 1
29 91 4
29 92 2
29 93 3
29 94 3
29 95 2
29 96 2
29 97 3
29 98 1
29 99 4
29 100 2
30 31 1
30 32 1
30 33 1
30 34 5
30 35 2
30 36 2
30 37 5
30 38 1
30 39 1
30 40 4
30 41 3
30 42 3
30 43 4
30 44 5
30 45 1
30 46 4
30 47 4
30 48 5
30 49 4
30 50 2
30 51 1
30 52 5
30 53 5
30 54 1
30 55 5
30 56 4
30 57 3
30 58 4
30 59 2
30 60 3
30 61 3
30 62 3
30 63 5
30 64 4
30 65 1
30 66 3
30 67 5
30 68 4
30 69 3
30 70 4
30 71 1
30 72 2
30 73 1
30 74 5
30 75 2
30 76 5
30 77 4
30 78 5
30 79 2
30 80 4
30 81 2
30 82 5
30 83 3
30 84 3
30 85 5
30 86 4
30 87 2
30 88 1
30 89 5
30 90 1
30 91 4
30 92 2
30 93 3
30 94 2
30 95 3
30 96 5
30 97 1
30 98 3
30 99 5
30 100 5
31 32 5
31 33 2
31 34 2
31 35 2
31 36 1
31 37 2
31 38 4
31 39 1
31 40 3
31 41 3
31 42 5
31 43 3
31 44 1
31 45 2
31 46 1
31 47 1
31 48 5
31 49 5
31 50 4
31 51 2
31 52 2
31 53 4
31 54 3
31 55 5
31 56 2
31 57 5
31 58 4
31 59 2
31 60 4
31 61 5
31 62 2
31 63 4
31 64 5
31 65 5
31 66 2
31 67 5
31 68 4
31 69 1
31 70 5
31 71 1
31 72 5
31 73 2
31 74 3
31 75 2
31 76 3
31 77 4
31 78 4
31 79 2
31 80 5
31 81 1
31 82 4
31 83 4
31 84 1
31 85 5
31 86 1
31 87 4
31 88 4
31 89 5
31 90 5
31 91 2
31 92 5
31 93 4
31 94 4
31 95 3
31 96 5
31 97 3
31 98 3
31 99 3
31 100 2
32 33 4
32 34 5
32 35 3
32 36 3
32 37 4
32 38 4
32 39 4
32 40 2
32 41 4
32 42 3
32 43 4
32 44 1
32 45 5
32 46 5
32 47 4
32 48 5
32 49 3
32 50 2
32 51 2
32 52 5
32 53 2
32 54 2
32 55 4
32 56 1
32 57 3
32 58 1
32 59 1
32 60 1
32 61 4
32 62 3
32 63 1
32 64 3
32 65 5
32 66 5
32 67 1
32 68 3
32 69 3
32 70 2
32 71 1
32 72 1
32 73 1
32 74 4
32 75 5
32 76 3
32 77 4
32 78 5
32 79 3
32 80 3
32 81 4
32 82 5
32 83 1
32 84 5
32 85 2
32 86 2
32 87 5
32 88 4
32 89 3
32 90 1
32 91 4
32 92 1
32 93 5
32 94 2
32 95 4
32 96 2
32 97 5
32 98 3
32 99 3
32 100 3
33 34 5
33 35 5
33 36 3
33 37 2
33 38 5
33 39 1
33 40 3
33 41 5
33 42 4
33 43 1
33 44 5
33 45 5
33 46 1
33 47 1
33 48 2
33 49 5
33 50 4
33 51 4
33 52 1
33 53 4
33 54 1
33 55 5
33 56 3
33 57 5
33 58 5
33 59 2
33 60 2
33 61 5
33 62 5
33 63 5
33 64 1
33 65 5
33 66 3
33 67 3
33 68 2
33 69 1
33 70 3
33 71 2
33 72 5
33 73 2
33 74 5
33 75 2
33 76 2
33 77 2
33 78 2
33 79 3
33 80 4
33 81 5
33 82 5
33 83 4
33 84 4
33 85 4
33 86 5
33 87 2
33 88 2
33 89 5
33 90 4
33 91 5
33 92 4
33 93 3
33 94 3
33 95 3
33 96 3
33 97 2
33 98 3
33 99 2
33 100 1
34 35 5
34 36 3
34 37 2
34 38 3
34 39 4
34 40 1
34 41 5
34 42 3
34 43 4
34 44 2
34 45 1
34 46 5
34 47 1
34 48 4
34 49 2
34 50 5
34 51 4
34 52 5
34 53 2
34 54 3
34 55 5
34 56 2
34 57 3
34 58 2
34 59 1
34 60 1
34 61 1
34 62 4
34 63 5
34 64 3
34 65 3
34 66 2
34 67 5
34 68 1
34 69 1
34 70 3
34 71 3
34 72 4
34 73 4
34 74 4
34 75 5
34 76 3
34 77 3
34 78 2
34 79 3
34 80 5
34 81 3
34 82 2
34 83 3
34 84 1
34 85 5
34 86 2
34 87 3
34 88 1
34 89 3
34 90 5
34 91 4
34 92 3
34 93 4
34 94 4
34 95 2
34 96 1
34 97 1
34 98 1
34 99 4
34 100 3
35 36 2
35 37 1
35 38 1
35 39 2
35 40 3
35 41 3
35 42 4
35 43 3
35 44 1
35 45 5
35 46 1
35 47 3
35 48 4
35 49 3
35 50 3
35 51 2
35 52 3
35 53 4
35 54 4
35 55 2
35 56 5
35 57 4
35 58 5
35 59 5
35 60 1
35 61 4
35 62 3
35 63 4
35 64 2
35 65 2
35 66 3
35 67 3
35 68 5
35 69 1
35 70 1
35 71 2
35 72 5
35 73 2
35 74 2
35 75 4
35 76 5
35 77 2
35 78 5
35 79 2
35 80 5
35 81 1
35 82 3
35 83 1
35 84 2
35 85 4
35 86 1
35 87 2
35 88 2
35 89 4
35 90 2
35 91 2
35 92 1
35 93 4
35 94 2
35 95 2
35 96 5
35 97 1
35 98 3
35 99 2
35 100 4
36 37 2
36 38 4
36 39 2
36 40 4
36 41 1
36 42 3
36 43 1
36 44 4
36 45 4
36 46 4
36 47 3
36 48 1
36 49 2
36 50 3
36 51 1
36 52 5
36 53 2
36 54 4
36 55 3
36 56 3
36 57 5
36 58 5
36 59 3
36 60 2
36 61 5
36 62 4
36 63 2
36 64 1
36 65 5
36 66 3
36 67 3
36 68 5
36 69 2
36 70 5
36 71 2
36 72 2
36 73 2
36 74 4
36 75 2
36 76 1
36 77 5
36 78 4
36 79 5
36 80 1
36 81 1
36 82 5
36 83 3
36 84 5
36 85 5
36 86 1
36 87 3
36 88 2
36 89 5
36 90 3
36 91 2
36 92 1
36 93 1
36 94 5
36 95 3
36 96 5
36 97 2
36 98 2
36 99 2
36 100 4
37 38 2
37 39 4
37 40 4
37 41 3
37 42 5
37 43 4
37 44 3
37 45 4
37 46 2
37 47 3
37 48 1
37 49 5
37 50 3
37 51 4
37 52 2
37 53 4
37 54 2
37 55 5
37 56 2
37 57 3
37 58 4
37 59 2
37 60 4
37 61 2
37 62 4
37 63 3
37 64 3
37 65 1
37 66 1
37 67 3
37 68 1
37 69 2
37 70 4
37 71 4
37 72 3
37 73 1
37 74 5
37 75 5
37 76 2
37 77 4
37 78 1
37 79 4
37 80 1
37 81 4
37 82 1
37 83 2
37 84 1
37 85 4
37 86 2
37 87 3
37 88 3
37 89 5
37 90 1
37 91 2
37 92 1
37 93 3
37 94 1
37 95 3
37 96 3
37 97 3
37 98 5
37 99 3
37 100 2
38 39 4
38 40 4
38 41 1
38 42 2
38 43 1
38 44 2
38 45 5
38 46 4
38 47 3
38 48 3
38 49 2
38 50 2
38 51 4
38 52 2
38 53 3
38 54 1
38 55 5
38 56 4
38 57 1
38 58 2
38 59 3
38 60 2
38 61 2
38 62 4
38 63 4
38 64 1
38 65 5
38 66 4
38 67 2
38 68 5
38 69 4
38 70 1
38 71 3
38 72 2
38 73 3
38 74 1
38 75 3
38 76 3
38 77 1
38 78 5
38 79 2
38 80 1
38 81 5
38 82 3
38 83 3
38 84 5
38 85 4
38 86 3
38 87 1
38 88 2
38 89 1
38 90 2
38 91 3
38 92 4
38 93 2
38 94 2
38 95 5
38 96 4
38 97 5
38 98 1
38 99 4
38 100 3
39 40 2
39 41 2
39 42 3
39 43 5
39 44 2
39 45 3
39 46 5
39 47 3
39 48 3
39 49 1
39 50 1
39 51 3
39 52 1
39 53 2
39 54 4
39 55 2
39 56 2
39 57 3
39 58 4
39 59 2
39 60 4
39 61 4
39 62 4
39 63 3
39 64 1
39 65 3
39 66 1
39 67 1
39 68 5
39 69 3
39 70 2
39 71 5
39 72 1
39 73 4
39 74 5
39 75 1
39 76 2
39 77 3
39 78 2
39 79 3
39 80 2
39 81 2
39 82 1
39 83 4
39 84 5
39 85 2
39 86 1
39 87 4
39 88 3
39 89 1
39 90 2
39 91 4
39 92 4
39 93 2
39 94 4
39 95 2
39 96 2
39 97 3
39 98 3
39 99 1
39 100 4
40 41 5
40 42 5
40 43 4
40 44 5
40 45 3
40 46 2
40 47 2
40 48 4
40 49 3
40 50 5
40 51 4
40 52 1
40 53 5
40 54 4
40 55 1
40 56 4
40 57 3
40 58 2
40 59 3
40 60 4
40 61 2
40 62 1
40 63 4
40 64 5
40 65 1
40 66 1
40 67 2
40 68 4
40 69 4
40 70 1
40 71 2
40 72 4
40 73 4
40 74 3
40 75 2
40 76 3
40 77 1
40 78 4
40 79 2
40 80 4
40 81 4
40 82 1
40 83 3
40 84 1
40 85 5
40 86 5
40 87 2
40 88 5
40 89 1
40 90 3
40 91 4
40 92 2
40 93 4
40 94 5
40 95 1
40 96 5
40 97 5
40 98 5
40 99 4
40 100 4
41 42 3
41 43 5
41 44 4
41 45 3
41 46 5
41 47 3
41 48 5
41 49 5
41 50 5
41 51 4
41 52 5
41 53 2
41 54 3
41 55 1
41 56 4
41 57 5
41 58 5
41 59 5
41 60 4
41 61 3
41 62 2
41 63 3
41 64 1
41 65 5
41 66 3
41 67 5
41 68 5
41 69 3
41 70 1
41 71 2
41 72 5
41 73 5
41 74 2
41 75 5
41 76 3
41 77 4
41 78 4
41 79 3
41 80 3
41 81 3
41 82 2
41 83 4
41 84 1
41 85 1
41 86 1
41 87 4
41 88 4
41 89 1
41 90 4
41 91 3
41 92 4
41 93 3
41 94 5
41 95 5
41 96 5
41 97 2
41 98 4
41 99 2
41 100 5
42 43 3
42 44 2
42 45 1
42 46 4
42 47 1
42 48 4
42 49 5
42 50 1
42 51 3
42 52 2
42 53 1
42 54 1
42 55 5
42 56 1
42 57 4
42 58 4
42 59 4
42 60 3
42 61 3
42 62 5
42 63 1
42 64 2
42 65 5
42 66 1
42 67 4
42 68 3
42 69 5
42 70 1
42 71 2
42 72 2
42 73 5
42 74 3
42 75 5
42 76 1
42 77 5
42 78 4
42 79 2
42 80 4
42 81 1
42 82 4
42 83 4
42 84 4
42 85 4
42 86 1
42 87 4
42 88 5
42 89 5
42 90 5
42 91 3
42 92 5
42 93 3
42 94 1
42 95 5
42 96 2
42 97 4
42 98 5
42 99 5
42 100 3
43 44 3
43 45 4
43 46 5
43 47 2
43 48 3
43 49 4
43 50 5
43 51 3
43 52 1
43 53 5
43 54 5
43 55 5
43 56 2
43 57 1
43 58 3
43 59 2
43 60 1
43 61 2
43 62 5
43 63 3
43 64 5
43 65 4
43 66 1
43 67 5
43 68 1
43 69 1
43 70 1
43 71 3
43 72 1
43 73 2
43 74 2
43 75 4
43 76 2
43 77 3
43 78 1
43 79 5
43 80 1
43 81 5
43 82 4
43 83 5
43 84 3
43 85 2
43 86 2
43 87 5
43 88 1
43 89 4
43 90 1
43 91 4
43 92 5
43 93 3
43 94 4
43 95 1
43 96 1
43 97 1
43 98 4
43 99 3
43 100 3
44 45 4
44 46 3
44 47 1
44 48 2
44 49 3
44 50 4
44 51 3
44 52 1
44 53 5
44 54 1
44 55 3
44 56 1
44 57 2
44 58 1
44 59 5
44 60 5
44 61 5
44 62 4
44 63 4
44 64 3
44 65 2
44 66 4
44 67 1
44 68 1
44 69 2
44 70 3
44 71 4
44 72 4
44 73 1
44 74 5
44 75 4
44 76 4
44 77 1
44 78 5
44 79 1
44 80 5
44 81 1
44 82 1
44 83 3
44 84 2
44 85 5
44 86 3
44 87 4
44 88 3
44 89 1
44 90 2
44 91 5
44 92 1
44 93 2
44 94 3
44 95 4
44 96 2
44 97 5
44 98 1
44 99 4
44 100 1
45 46 4
45 47 3
45 48 5
45 49 1
45 50 3
45 51 5
45 52 4
45 53 4
45 54 5
45 55 4
45 56 2
45 57 1
45 58 5
45 59 5
45 60 4
45 61 1
45 62 4
45 63 2
45 64 4
45 65 3
45 66 5
45 67 1
45 68 4
45 69 5
45 70 5
45 71 5
45 72 5
45 73 2
45 74 4
45 75 2
45 76 2
45 77 2
45 78 4
45 79 3
45 80 4
45 81 4
45 82 4
45 83 4
45 84 5
45 85 4
45 86 2
45 87 5
45 88 1
45 89 2
45 90 5
45 91 1
45 92 1
45 93 3
45 94 1
45 95 2
45 96 2
45 97 2
45 98 1
45 99 4
45 100 2
46 47 1
46 48 1
46 49 1
46 50 1
46 51 3
46 52 2
46 53 1
46 54 4
46 55 5
46 56 3
46 57 2
46 58 1
46 59 1
46 60 4
46 61 3
46 62 3
46 63 4
46 64 3
46 65 5
46 66 1
46 67 4
46 68 4
46 69 5
46 70 2
46 71 1
46 72 4
46 73 4
46 74 3
46 75 2
46 76 3
46 77 5
46 78 1
46 79 3
46 80 4
46 81 4
46 82 2
46 83 2
46 84 1
46 85 5
46 86 3
46 87 5
46 88 3
46 89 3
46 90 1
46 91 2
46 92 1
46 93 3
46 94 5
46 95 4
46 96 4
46 97 2
46 98 5
46 99 5
46 100 5
47 48 2
47 49 2
47 50 1
47 51 1
47 52 1
47 53 2
47 54 2
47 55 3
47 56 3
47 57 2
47 58 4
47 59 1
47 60 2
47 61 5
47 62 3
47 63 1
47 64 5
47 65 2
47 66 3
47 67 1
47 68 4
47 69 2
47 70 2
47 71 3
47 72 5
47 73 3
47 74 3
47 75 5
47 76 4
47 77 3
47 78 3
47 79 3
47 80 1
47 81 5
47 82 2
47 83 5
47 84 2
47 85 4
47 86 4
47 87 2
47 88 1
47 89 3
47 90 1
47 91 5
47 92 4
47 93 2
47 94 4
47 95 3
47 96 2
47 97 4
47 98 3
47 99 4
47 100 4
48 49 4
48 50 1
48 51 3
48 52 2
48 53 3
48 54 3
48 55 1
48 56 5
48 57 2
48 58 2
48 59 5
48 60 1
48 61 1
48 62 1
48 63 1
48 64 4
48 65 4
48 66 5
48 67 2
48 68 5
48 69 4
48 70 3
48 71 3
48 72 3
48 73 3
48 74 1
48 75 4
48 76 2
48 77 3
48 78 3
48 79 1
48 80 2
48 81 2
48 82 2
48 83 2
48 84 3
48 85 1
48 86 3
48 87 5
48 88 2
48 89 3
48 90 1
48 91 3
48 92 3
48 93 2
48 94 5
48 95 3
48 96 3
48 97 1
48 98 1
48 99 4
48 100 5
49 50 5
49 51 1
49 52 3
49 53 2
49 54 5
49 55 3
49 56 2
49 57 1
49 58 1
49 59 2
49 60 3
49 61 1
49 62 2
49 63 2
49 64 4
49 65 5
49 66 3
49 67 1
49 68 3
49 69 5
49 70 4
49 71 2
49 72 2
49 73 2
49 74 3
49 75 4
49 76 1
49 77 2
49 78 5
49 79 3
49 80 5
49 81 5
49 82 2
49 83 1
49 84 5
49 85 5
49 86 3
49 87 5
49 88 2
49 89 1
49 90 3
49 91 4
49 92 4
49 93 4
49 94 5
49 95 3
49 96 1
49 97 3
49 98 4
49 99 4
49 100 4
50 51 5
50 52 4
50 53 5
50 54 5
50 55 3
50 56 1
50 57 5
50 58 3
50 59 5
50 60 1
50 61 3
50 62 1
50 63 3
50 64 5
50 65 2
50 66 3
50 67 2
50 68 4
50 69 1
50 70 3
50 71 3
50 72 1
50 73 4
50 74 5
50 75 5
50 76 3
50 77 3
50 78 1
50 79 5
50 80 3
50 81 2
50 82 2
50 83 5
50 84 3
50 85 3
50 86 3
50 87 2
50 88 3
50 89 5
50 90 5
50 91 2
50 92 1
50 93 5
50 94 5
50 95 2
50 96 2
50 97 3
50 98 4
50 99 1
50 100 4
51 52 3
51 53 5
51 54 4
51 55 2
51 56 4
51 57 1
51 58 3
51 59 4
51 60 5
51 61 5
51 62 2
51 63 1
51 64 3
51 65 3
51 66 4
51 67 1
51 68 4
51 69 5
51 70 4
51 71 3
51 72 3
51 73 4
51 74 2
51 75 1
51 76 4
51 77 1
51 78 2
51 79 1
51 80 1
51 81 5
51 82 1
51 83 3
51 84 1
51 85 1
51 86 4
51 87 4
51 88 4
51 89 4
51 90 2
51 91 4
51 92 4
51 93 3
51 94 5
51 95 1
51 96 4
51 97 4
51 98 5
51 99 1
51 100 3
52 53 1
52 54 1
52 55 1
52 56 1
52 57 5
52 58 2
52 59 4
52 60 3
52 61 5
52 62 2
52 63 2
52 64 5
52 65 4
52 66 1
52 67 5
52 68 2
52 69 5
52 70 3
52 71 5
52 72 2
52 73 4
52 74 2
52 75 3
52 76 3
52 77 4
52 78 5
52 79 4
52 80 5
52 81 2
52 82 1
52 83 2
52 84 1
52 85 2
52 86 4
52 87 4
52 88 2
52 89 1
52 90 1
52 91 4
52 92 3
52 93 4
52 94 1
52 95 5
52 96 2
52 97 2
52 98 1
52 99 2
52 100 1
53 54 3
53 55 5
53 56 4
53 57 5
53 58 1
53 59 5
53 60 2
53 61 2
53 62 4
53 63 4
53 64 5
53 65 4
53 66 5
53 67 1
53 68 5
53 69 2
53 70 1
53 71 4
53 72 3
53 73 5
53 74 4
53 75 5
53 76 2
53 77 3
53 78 5
53 79 3
53 80 2
53 81 1
53 82 5
53 83 5
53 84 2
53 85 2
53 86 3
53 87 4
53 88 2
53 89 2
53 90 1
53 91 3
53 92 1
53 93 2
53 94 3
53 95 4
53 96 4
53 97 5
53 98 4
53 99 2
53 100 2
54 55 3
54 56 4
54 57 3
54 58 1
54 59 4
54 60 1
54 61 1
54 62 3
54 63 3
54 64 3
54 65 2
54 66 4
54 67 3
54 68 2
54 69 2
54 70 5
54 71 5
54 72 3
54 73 5
54 74 4
54 75 2
54 76 4
54 77 2
54 78 1
54 79 5
54 80 3
54 81 4
54 82 2
54 83 4
54 84 1
54 85 3
54 86 4
54 87 4
54 88 2
54 89 1
54 90 1
54 91 4
54 92 1
54 93 2
54 94 4
54 95 3
54 96 4
54 97 5
54 98 2
54 99 4
54 100 2
55 56 5
55 57 4
55 58 4
55 59 1
55 60 2
55 61 2
55 62 4
55 63 1
55 64 5
55 65 1
55 66 3
55 67 4
55 68 4
55 69 4
55 70 3
55 71 3
55 72 3
55 73 3
55 74 4
55 75 4
55 76 1
55 77 2
55 78 4
55 79 2
55 80 5
55 81 5
55 82 4
55 83 4
55 84 5
55 85 3
55 86 4
55 87 1
55 88 4
55 89 1
55 90 5
55 91 4
55 92 3
55 93 1
55 94 4
55 95 5
55 96 5
55 97 1
55 98 3
55 99 5
55 100 5
56 57 2
56 58 3
56 59 3
56 60 5
56 61 5
56 62 5
56 63 4
56 64 2
56 65 4
56 66 3
56 67 4
56 68 5
56 69 4
56 70 4
56 71 4
56 72 3
56 73 4
56 74 1
56 75 4
56 76 4
56 77 1
56 78 2
56 79 2
56 80 1
56 81 1
56 82 4
56 83 1
56 84 2
56 85 4
56 86 3
56 87 1
56 88 4
56 89 1
56 90 1
56 91 3
56 92 1
56 93 1
56 94 4
56 95 5
56 96 2
56 97 4
56 98 5
56 99 2
56 100 3
57 58 5
57 59 4
57 60 3
57 61 2
57 62 1
57 63 3
57 64 3
57 65 3
57 66 4
57 67 1
57 68 3
57 69 3
57 70 3
57 71 2
57 72 1
57 73 4
57 74 2
57 75 3
57 76 3
57 77 5
57 78 3
57 79 1
57 80 5
57 81 5
57 82 5
57 83 3
57 84 1
57 85 5
57 86 5
57 87 3
57 88 4
57 89 3
57 90 2
57 91 1
57 92 1
57 93 3
57 94 5
57 95 5
57 96 5
57 97 4
57 98 3
57 99 1
57 100 3
58 59 4
58 60 4
58 61 2
58 62 2
58 63 4
58 64 5
58 65 5
58 66 3
58 67 3
58 68 5
58 69 4
58 70 3
58 71 2
58 72 1
58 73 4
58 74 4
58 75 2
58 76 4
58 77 5
58 78 3
58 79 2
58 80 3
58 81 2
58 82 3
58 83 2
58 84 1
58 85 4
58 86 3
58 87 3
58 88 1
58 89 2
58 90 5
58 91 2
58 92 2
58 93 4
58 94 3
58 95 4
58 96 4
58 97 2
58 98 3
58 99 5
58 100 5
59 60 2
59 61 3
59 62 4
59 63 1
59 64 2
59 65 2
59 66 1
59 67 5
59 68 1
59 69 3
59 70 5
59 71 2
59 72 5
59 73 2
59 74 1
59 75 2
59 76 4
59 77 4
59 78 4
59 79 2
59 80 1
59 81 4
59 82 5
59 83 3
59 84 3
59 85 1
59 86 1
59 87 2
59 88 5
59 89 3
59 90 2
59 91 2
59 92 4
59 93 4
59 94 2
59 95 5
59 96 3
59 97 2
59 98 4
59 99 3
59 100 4
60 61 1
60 62 5
60 63 1
60 64 4
60 65 2
60 66 1
60 67 2
60 68 2
60 69 1
60 70 1
60 71 5
60 72 1
60 73 4
60 74 1
60 75 5
60 76 2
60 77 1
60 78 5
60 79 4
60 80 3
60 81 4
60 82 4
60 83 2
60 84 2
60 85 5
60 86 5
60 87 4
60 88 2
60 89 4
60 90 4
60 91 3
60 92 2
60 93 2
60 94 1
60 95 5
60 96 2
60 97 5
60 98 5
60 99 3
60 100 2
61 62 4
61 63 3
61 64 4
61 65 2
61 66 1
61 67 1
61 68 4
61 69 5
61 70 5
61 71 1
61 72 2
61 73 4
61 74 5
61 75 5
61 76 1
61 77 1
61 78 5
61 79 1
61 80 1
61 81 1
61 82 2
61 83 4
61 84 4
61 85 3
61 86 1
61 87 5
61 88 1
61 89 4
61 90 3
61 91 1
61 92 5
61 93 3
61 94 3
61 95 2
61 96 5
61 97 4
61 98 3
61 99 2
61 100 2
62 63 1
62 64 5
62 65 2
62 66 2
62 67 4
62 68 2
62 69 4
62 70 3
62 71 2
62 72 1
62 73 2
62 74 3
62 75 1
62 76 5
62 77 3
62 78 1
62 79 5
62 80 2
62 81 3
62 82 5
62 83 2
62 84 2
62 85 1
62 86 2
62 87 4
62 88 4
62 89 5
62 90 5
62 91 5
62 92 3
62 93 3
62 94 3
62 95 4
62 96 1
62 97 2
62 98 2
62 99 4
62 100 5
63 64 3
63 65 5
63 66 1
63 67 3
63 68 4
63 69 2
63 70 4
63 71 1
63 72 2
63 73 1
63 74 4
63 75 3
63 76 2
63 77 5
63 78 4
63 79 4
63 80 2
63 81 5
63 82 4
63 83 3
63 84 1
63 85 4
63 86 4
63 87 3
63 88 4
63 89 3
63 90 3
63 91 4
63 92 2
63 93 3
63 94 5
63 95 4
63 96 3
63 97 2
63 98 2
63 99 3
63 100 2
64 65 4
64 66 5
64 67 4
64 68 1
64 69 4
64 70 3
64 71 3
64 72 5
64 73 1
64 74 2
64 75 4
64 76 4
64 77 4
64 78 2
64 79 1
64 80 1
64 81 2
64 82 4
64 83 5
64 84 4
64 85 4
64 86 2
64 87 2
64 88 4
64 89 4
64 90 1
64 91 4
64 92 5
64 93 3
64 94 3
64 95 1
64 96 3
64 97 3
64 98 5
64 99 5
64 100 1
65 66 2
65 67 2
65 68 4
65 69 1
65 70 4
65 71 4
65 72 5
65 73 1
65 74 4
65 75 3
65 76 5
65 77 4
65 78 4
65 79 3
65 80 4
65 81 2
65 82 3
65 83 1
65 84 1
65 85 5
65 86 3
65 87 3
65 88 2
65 89 1
65 90 4
65 91 3
65 92 2
65 93 1
65 94 3
65 95 3
65 96 5
65 97 3
65 98 1
65 99 4
65 100 2
66 67 5
66 68 1
66 69 3
66 70 4
66 71 4
66 72 2
66 73 4
66 74 4
66 75 2
66 76 2
66 77 4
66 78 3
66 79 3
66 80 3
66 81 1
66 82 2
66 83 5
66 84 5
66 85 5
66 86 3
66 87 3
66 88 5
66 89 5
66 90 1
66 91 2
66 92 4
66 93 3
66 94 3
66 95 4
66 96 3
66 97 3
66 98 2
66 99 5
66 100 5
67 68 4
67 69 3
67 70 4
67 71 1
67 72 3
67 73 3
67 74 3
67 75 3
67 76 2
67 77 3
67 78 2
67 79 4
67 80 4
67 81 1
67 82 2
67 83 3
67 84 4
67 85 1
67 86 3
67 87 1
67 88 2
67 89 2
67 90 1
67 91 1
67 92 5
67 93 3
67 94 3
67 95 4
67 96 1
67 97 3
67 98 1
67 99 3
67 100 1
68 69 1
68 70 2
68 71 2
68 72 2
68 73 3
68 74 1
68 75 4
68 76 2
68 77 1
68 78 3
68 79 4
68 80 2
68 81 1
68 82 2
68 83 3
68 84 4
68 85 1
68 86 1
68 87 1
68 88 4
68 89 5
68 90 2
68 91 3
68 92 5
68 93 4
68 94 2
68 95 1
68 96 5
68 97 2
68 98 1
68 99 3
68 100 3
69 70 4
69 71 3
69 72 2
69 73 2
69 74 4
69 75 2
69 76 1
69 77 1
69 78 4
69 79 2
69 80 4
69 81 3
69 82 5
69 83 4
69 84 5
69 85 2
69 86 1
69 87 4
69 88 5
69 89 2
69 90 4
69 91 4
69 92 4
69 93 5
69 94 3
69 95 3
69 96 5
69 97 3
69 98 5
69 99 3
69 100 1
70 71 5
70 72 3
70 73 3
70 74 5
70 75 4
70 76 5
70 77 3
70 78 2
70 79 1
70 80 2
70 81 2
70 82 1
70 83 5
70 84 5
70 85 4
70 86 5
70 87 5
70 88 3
70 89 5
70 90 5
70 91 1
70 92 4
70 93 5
70 94 5
70 95 4
70 96 5
70 97 3
70 98 2
70 99 1
70 100 3
71 72 2
71 73 2
71 74 2
71 75 2
71 76 1
71 77 1
71 78 1
71 79 1
71 80 1
71 81 1
71 82 1
71 83 2
71 84 3
71 85 5
71 86 4
71 87 4
71 88 5
71 89 2
71 90 3
71 91 4
71 92 3
71 93 1
71 94 3
71 95 1
71 96 3
71 97 5
71 98 1
71 99 5
71 100 1
72 73 2
72 74 2
72 75 5
72 76 1
72 77 5
72 78 1
72 79 2
72 80 3
72 81 2
72 82 3
72 83 5
72 84 1
72 85 4
72 86 1
72 87 5
72 88 3
72 89 4
72 90 3
72 91 5
72 92 5
72 93 4
72 94 2
72 95 3
72 96 3
72 97 5
72 98 1
72 99 4
72 100 4
73 74 2
73 75 2
73 76 3
73 77 4
73 78 4
73 79 4
73 80 3
73 81 4
73 82 1
73 83 3
73 84 5
73 85 1
73 86 2
73 87 5
73 88 5
73 89 3
73 90 4
73 91 3
73 92 4
73 93 2
73 94 2
73 95 3
73 96 3
73 97 4
73 98 4
73 99 1
73 100 1
74 75 1
74 76 1
74 77 3
74 78 2
74 79 5
74 80 3
74 81 5
74 82 5
74 83 1
74 84 2
74 85 2
74 86 1
74 87 3
74 88 5
74 89 2
74 90 3
74 91 4
74 92 3
74 93 1
74 94 2
74 95 3
74 96 2
74 97 2
74 98 4
74 99 2
74 100 2
75 76 1
75 77 5
75 78 5
75 79 4
75 80 1
75 81 1
75 82 4
75 83 5
75 84 1
75 85 1
75 86 2
75 87 1
75 88 3
75 89 4
75 90 4
75 91 2
75 92 2
75 93 2
75 94 2
75 95 4
75 96 4
75 97 1
75 98 2
75 99 5
75 100 1
76 77 5
76 78 3
76 79 1
76 80 2
76 81 4
76 82 5
76 83 3
76 84 3
76 85 5
76 86 3
76 87 3
76 88 5
76 89 5
76 90 5
76 91 3
76 92 2
76 93 3
76 94 2
76 95 5
76 96 5
76 97 5
76 98 3
76 99 4
76 100 2
77 78 1
77 79 5
77 80 5
77 81 1
77 82 5
77 83 1
77 84 1
77 85 2
77 86 1
77 87 4
77 88 3
77 89 2
77 90 2
77 91 3
77 92 2
77 93 4
77 94 3
77 95 5
77 96 3
77 97 4
77 98 1
77 99 3
77 100 4
78 79 5
78 80 4
78 81 4
78 82 4
78 83 4
78 84 3
78 85 2
78 86 4
78 87 3
78 88 4
78 89 2
78 90 1
78 91 1
78 92 1
78 93 3
78 94 2
78 95 2
78 96 2
78 97 2
78 98 5
78 99 1
78 100 4
79 80 4
79 81 4
79 82 1
79 83 5
79 84 1
79 85 1
79 86 5
79 87 4
79 88 2
79 89 4
79 90 2
79 91 3
79 92 1
79 93 4
79 94 3
79 95 2
79 96 5
79 97 4
79 98 5
79 99 1
79 100 1
80 81 2
80 82 2
80 83 2
80 84 3
80 85 1
80 86 2
80 87 2
80 88 1
80 89 1
80 90 5
80 91 1
80 92 4
80 93 1
80 94 1
80 95 5
80 96 2
80 97 1
80 98 1
80 99 5
80 100 5
81 82 5
81 83 1
81 84 1
81 85 4
81 86 2
81 87 2
81 88 1
81 89 2
81 90 5
81 91 3
81 92 5
81 93 4
81 94 5
81 95 1
81 96 4
81 97 1
81 98 1
81 99 4
81 100 2
82 83 4
82 84 4
82 85 2
82 86 4
82 87 3
82 88 1
82 89 3
82 90 1
82 91 3
82 92 3
82 93 1
82 94 2
82 95 3
82 96 5
82 97 4
82 98 3
82 99 1
82 100 3
83 84 3
83 85 3
83 86 3
83 87 3
83 88 2
83 89 2
83 90 5
83 91 2
83 92 1
83 93 1
83 94 3
83 95 3
83 96 2
83 97 5
83 98 5
83 99 5
83 100 3
84 85 1
84 86 3
84 87 1
84 88 2
84 89 1
84 90 1
84 91 5
84 92 2
84 93 3
84 94 5
84 95 3
84 96 1
84 97 3
84 98 3
84 99 2
84 100 4
85 86 3
85 87 4
85 88 3
85 89 3
85 90 4
85 91 4
85 92 4
85 93 5
85 94 4
85 95 4
85 96 3
85 97 1
85 98 2
85 99 5
85 100 2
86 87 2
86 88 1
86 89 2
86 90 3
86 91 1
86 92 1
86 93 1
86 94 3
86 95 2
86 96 5
86 97 2
86 98 5
86 99 3
86 100 4
87 88 2
87 89 1
87 90 2
87 91 2
87 92 2
87 93 2
87 94 5
87 95 2
87 96 5
87 97 2
87 98 2
87 99 3
87 100 1
88 89 4
88 90 2
88 91 1
88 92 4
88 93 5
88 94 3
88 95 2
88 96 2
88 97 2
88 98 5
88 99 1
88 100 2
89 90 1
89 91 2
89 92 3
89 93 2
89 94 3
89 95 5
89 96 5
89 97 3
89 98 4
89 99 2
89 100 2
90 91 1
90 92 5
90 93 1
90 94 2
90 95 2
90 96 2
90 97 5
90 98 4
90 99 5
90 100 1
91 92 1
91 93 1
91 94 4
91 95 1
91 96 5
91 97 1
91 98 3
91 99 2
91 100 4
92 93 1
92 94 2
92 95 2
92 96 4
92 97 2
92 98 5
92 99 2
92 100 2
93 94 2
93 95 3
93 96 2
93 97 1
93 98 4
93 99 2
93 100 4
94 95 3
94 96 3
94 97 4
94 98 5
94 99 5
94 100 3
95 96 3
95 97 2
95 98 4
95 99 5
95 100 3
96 97 5
96 98 1
96 99 3
96 100 5
97 98 1
97 99 5
97 100 4
98 99 5
98 100 3
99 100 4
